Normalized Data/p03_9_normalized_splitx10_0.vrp
NAME:p03_9_NORMALIZED_splitx10_
BEST_KNOWN: 0
COMMENT: 0
DIMENSION: 398
CAPACITY: 1000
EDGE_WEIGHT_FORMAT: FUNCTION
EDGE_WEIGHT_TYPE: EXACT_2D
NODE_COORD_SECTION
1 0.00000 0.00000
2 39 17
3 39 17
4 39 17
5 39 17
6 39 17
7 31 -3
8 31 -3
9 31 -3
10 31 -3
11 31 -3
12 31 -3
13 27 48
14 27 48
15 27 48
16 27 48
17 30 46
18 30 46
19 -44 24
20 -44 24
21 -44 24
22 -44 24
23 -1 10
24 -1 10
25 -1 10
26 14 24
27 14 24
28 -32 24
29 -32 24
30 -32 24
31 -32 24
32 -32 24
33 -37 -5
34 -37 -5
35 -37 -5
36 30 -18
37 30 -18
38 30 -18
39 22 -43
40 22 -43
41 22 -43
42 22 -43
43 22 -43
44 36 -19
45 36 -19
46 36 -19
47 43 32
48 -17 -50
49 -17 -50
50 -17 -50
51 -17 -50
52 -10 -15
53 -10 -15
54 -10 -15
55 -10 -15
56 -10 -15
57 -23 -30
58 -23 -30
59 -49 -30
60 -49 -30
61 -49 -30
62 -49 -30
63 -25 13
64 -25 13
65 -25 13
66 -25 13
67 -33 28
68 -33 28
69 -33 28
70 41 -41
71 41 -41
72 41 -41
73 45 -5
74 45 -5
75 45 -5
76 2 -47
77 2 -47
78 -7 12
79 -7 12
80 47 29
81 47 29
82 47 29
83 47 29
84 35 -12
85 35 -12
86 -12 31
87 -12 31
88 -12 31
89 -9 38
90 -9 38
91 -9 38
92 -9 38
93 -9 38
94 -9 38
95 -40 -19
96 -40 -19
97 -40 -19
98 -40 -19
99 -40 -19
100 36 7
101 36 7
102 36 7
103 36 7
104 36 7
105 -18 -43
106 -18 -43
107 -18 -43
108 -18 -43
109 -18 -43
110 36 10
111 36 10
112 36 10
113 14 -20
114 14 -20
115 14 -20
116 -45 4
117 -45 4
118 -45 4
119 -45 4
120 -45 4
121 38 -46
122 38 -46
123 38 -46
124 38 -46
125 38 -46
126 38 -46
127 36 8
128 36 8
129 36 8
130 36 8
131 36 8
132 36 8
133 36 8
134 -12 41
135 -12 41
136 -12 41
137 -39 -45
138 -39 -45
139 -39 -45
140 -14 22
141 -14 22
142 -14 22
143 -14 22
144 -14 22
145 20 14
146 20 14
147 20 14
148 20 14
149 20 14
150 13 15
151 13 15
152 13 15
153 38 0
154 38 0
155 38 0
156 4 7
157 4 7
158 4 7
159 4 7
160 4 7
161 -49 -46
162 -49 -46
163 -49 -46
164 -49 -46
165 -49 -46
166 -28 36
167 -28 36
168 -28 36
169 -28 36
170 22 27
171 22 27
172 -20 4
173 -20 4
174 -20 4
175 -20 4
176 24 -22
177 24 -22
178 24 -22
179 18 -37
180 18 -37
181 18 -37
182 18 -37
183 18 -37
184 18 -37
185 18 -37
186 -25 32
187 -25 32
188 -25 32
189 -25 32
190 0 44
191 0 44
192 0 44
193 0 44
194 41 -25
195 41 -25
196 41 -25
197 24 25
198 24 25
199 -25 44
200 -25 44
201 -25 44
202 14 12
203 -3 16
204 -3 16
205 -3 16
206 -3 16
207 -3 16
208 -19 37
209 -19 37
210 -19 37
211 -19 37
212 -22 25
213 -22 25
214 -21 -24
215 -21 -24
216 -21 -24
217 -21 -24
218 -21 -24
219 -21 -24
220 -21 -24
221 41 31
222 41 31
223 -29 16
224 -29 16
225 -29 16
226 -29 16
227 -21 36
228 -21 36
229 -21 36
230 -21 36
231 -21 36
232 -15 40
233 -15 40
234 -12 15
235 -12 15
236 -12 15
237 -12 15
238 -12 15
239 -3 -1
240 -3 -1
241 -3 -1
242 -3 -1
243 -3 -1
244 42 37
245 42 37
246 -32 17
247 -32 17
248 -32 17
249 48 -15
250 48 -15
251 -7 5
252 -7 5
253 -7 5
254 -7 5
255 -7 5
256 4 4
257 4 4
258 4 4
259 4 4
260 38 49
261 38 49
262 38 49
263 38 49
264 38 49
265 38 49
266 -36 33
267 -36 33
268 -36 33
269 -36 33
270 -40 -7
271 -40 -7
272 -40 -7
273 -40 -7
274 -40 -7
275 11 -48
276 11 -48
277 11 -48
278 11 -48
279 11 -48
280 -44 -3
281 -44 -3
282 -44 -3
283 -44 -3
284 -44 -3
285 -44 -3
286 -10 10
287 -10 10
288 -10 10
289 17 14
290 17 14
291 17 14
292 -6 -27
293 -6 -27
294 -6 -27
295 -6 -27
296 -6 -27
297 -23 15
298 -23 15
299 -23 15
300 -23 15
301 -23 15
302 12 -16
303 12 -16
304 12 -16
305 12 -16
306 12 -16
307 12 -16
308 44 18
309 44 18
310 39 -2
311 39 -2
312 39 -2
313 39 -2
314 39 -2
315 39 -2
316 39 -2
317 9 50
318 9 50
319 9 50
320 9 50
321 9 50
322 48 43
323 48 43
324 41 -27
325 41 -27
326 41 -27
327 41 -27
328 41 -27
329 41 -27
330 41 -27
331 18 -3
332 18 -3
333 18 -3
334 18 -3
335 18 -3
336 -36 25
337 -36 25
338 -36 25
339 -36 25
340 -36 25
341 16 46
342 16 46
343 16 46
344 16 46
345 16 46
346 16 13
347 16 13
348 16 13
349 16 13
350 16 13
351 17 19
352 17 19
353 17 19
354 17 19
355 17 19
356 -21 -5
357 -21 -5
358 -21 -5
359 30 -35
360 30 -35
361 30 -35
362 49 -39
363 -33 -15
364 -33 -15
365 -33 -15
366 -33 -15
367 -33 -15
368 -44 45
369 -44 45
370 -44 45
371 -44 45
372 -44 45
373 -44 45
374 -44 -37
375 -44 -37
376 -44 -37
377 -44 -37
378 -44 -37
379 -44 -37
380 -44 -37
381 9 -14
382 9 -14
383 45 26
384 45 26
385 45 26
386 45 26
387 8 -27
388 8 -27
389 8 -27
390 -41 -4
391 -41 -4
392 -41 -4
393 -41 -4
394 -48 -39
395 -48 -39
396 -48 -39
397 -48 -39
398 -48 -39
DEMAND_SECTION
1 0
2 200
3 200
4 50
5 10
6 10
7 200
8 100
9 10
10 10
11 10
12 10
13 200
14 200
15 50
16 10
17 100
18 50
19 200
20 200
21 50
22 10
23 200
24 10
25 10
26 200
27 100
28 200
29 50
30 10
31 10
32 10
33 100
34 50
35 10
36 200
37 10
38 10
39 200
40 200
41 10
42 10
43 10
44 100
45 50
46 10
47 200
48 200
49 100
50 10
51 10
52 200
53 100
54 10
55 10
56 10
57 200
58 10
59 100
60 10
61 10
62 10
63 200
64 100
65 10
66 10
67 200
68 100
69 10
70 100
71 10
72 10
73 200
74 10
75 10
76 200
77 10
78 200
79 100
80 100
81 50
82 10
83 10
84 200
85 100
86 100
87 50
88 10
89 200
90 200
91 50
92 10
93 10
94 10
95 200
96 10
97 10
98 10
99 10
100 200
101 200
102 10
103 10
104 10
105 200
106 200
107 10
108 10
109 10
110 100
111 10
112 10
113 100
114 10
115 10
116 200
117 200
118 50
119 10
120 10
121 100
122 50
123 10
124 10
125 10
126 10
127 200
128 100
129 50
130 10
131 10
132 10
133 10
134 200
135 100
136 50
137 200
138 100
139 10
140 200
141 10
142 10
143 10
144 10
145 200
146 10
147 10
148 10
149 10
150 200
151 100
152 50
153 100
154 50
155 10
156 200
157 200
158 50
159 10
160 10
161 200
162 200
163 10
164 10
165 10
166 200
167 100
168 50
169 10
170 200
171 100
172 200
173 50
174 10
175 10
176 200
177 50
178 10
179 200
180 100
181 50
182 10
183 10
184 10
185 10
186 200
187 50
188 10
189 10
190 200
191 200
192 10
193 10
194 200
195 100
196 10
197 200
198 200
199 200
200 200
201 100
202 200
203 200
204 200
205 10
206 10
207 10
208 100
209 50
210 10
211 10
212 100
213 50
214 200
215 100
216 50
217 10
218 10
219 10
220 10
221 200
222 10
223 100
224 50
225 10
226 10
227 200
228 200
229 10
230 10
231 10
232 200
233 10
234 200
235 100
236 10
237 10
238 10
239 100
240 10
241 10
242 10
243 10
244 200
245 10
246 200
247 50
248 10
249 200
250 10
251 100
252 10
253 10
254 10
255 10
256 200
257 100
258 10
259 10
260 200
261 100
262 50
263 10
264 10
265 10
266 200
267 50
268 10
269 10
270 200
271 10
272 10
273 10
274 10
275 200
276 200
277 10
278 10
279 10
280 200
281 200
282 50
283 10
284 10
285 10
286 200
287 100
288 50
289 200
290 200
291 10
292 100
293 50
294 10
295 10
296 10
297 200
298 200
299 10
300 10
301 10
302 200
303 100
304 10
305 10
306 10
307 10
308 200
309 200
310 200
311 100
312 50
313 10
314 10
315 10
316 10
317 200
318 100
319 50
320 10
321 10
322 200
323 10
324 200
325 200
326 50
327 10
328 10
329 10
330 10
331 100
332 10
333 10
334 10
335 10
336 200
337 50
338 10
339 10
340 10
341 200
342 50
343 10
344 10
345 10
346 200
347 50
348 10
349 10
350 10
351 200
352 200
353 50
354 10
355 10
356 200
357 100
358 50
359 200
360 50
361 10
362 200
363 200
364 50
365 10
366 10
367 10
368 200
369 50
370 10
371 10
372 10
373 10
374 200
375 100
376 50
377 10
378 10
379 10
380 10
381 200
382 50
383 200
384 50
385 10
386 10
387 100
388 50
389 10
390 100
391 10
392 10
393 10
394 200
395 200
396 50
397 10
398 10
DEPOT_SECTION
1
-1
EOF