Normalized Data/p03_9_normalized_splitx10_0.sol
397 -4 3 2 1 5 307 308 110 111 109 -10 11 8 9 7 6 83 84 35 36 37 112 -12 14 15 13 341 343 342 340 344 202 205 204 -16 17 264 262 259 263 260 261 321 322 244 243 151 -23 24 22 77 78 286 287 285 253 251 252 -26 25 170 169 197 196 -34 33 32 389 269 270 271 273 272 94 95 98 365 363 362 366 364 -44 43 45 195 193 194 325 327 324 326 323 176 -48 47 50 49 76 75 278 277 275 276 274 -55 53 54 52 51 356 357 355 172 171 174 173 -57 56 375 377 378 379 373 374 376 393 394 -65 62 64 63 297 298 296 299 300 233 237 235 236 -67 68 66 338 339 336 335 337 31 28 30 29 27 254 250 -86 87 85 134 133 135 91 90 88 92 89 93 -113 114 38 42 39 41 40 183 184 179 180 181 178 182 386 388 387 -117 115 119 116 118 280 281 282 283 284 279 392 391 390 -130 126 128 132 131 127 129 101 103 99 102 100 330 332 331 333 334 -137 138 136 161 162 164 163 160 397 396 395 61 59 60 58 96 97 241 242 240 -140 187 186 165 168 166 167 368 367 370 371 369 372 265 267 268 266 -141 139 227 226 230 228 229 188 185 211 212 -144 145 350 354 353 351 352 149 150 -146 148 147 220 221 46 82 81 80 79 382 384 383 385 -154 153 152 315 310 309 311 314 312 313 73 72 74 248 249 -156 158 157 159 155 256 255 257 258 -177 175 359 360 358 123 121 125 122 120 124 71 70 69 361 328 329 -201 289 288 290 348 345 347 346 349 -206 203 191 190 192 189 319 318 320 317 316 -217 219 218 216 213 215 214 105 107 108 106 104 295 291 294 293 292 -223 225 224 222 20 21 18 19 247 245 246 239 238 -231 232 200 198 199 207 208 210 209 143 142 234 -305 303 302 306 301 304 381 380 0 





OBJ=
2871.514
BEST_KNOWN=
0.000